
Value of objective function: 4277

Actual values of the variables:
mksp                         4277
x00000                          1
x00001                          0
x00002                          0
x00003                          0
x00004                          0
x00005                          0
x00006                          0
x00007                          0
x00008                          0
x00009                          0
x01000                          0
x01001                          0
x01002                          0
x01003                          0
x01004                          0
x01005                          0
x01006                          0
x01007                          1
x01008                          0
x01009                          0
x02000                          0
x02001                          0
x02002                          0
x02003                          0
x02004                          0
x02005                          1
x02006                          0
x02007                          0
x02008                          0
x02009                          0
x03000                          0
x03001                          0
x03002                          0
x03003                          1
x03004                          0
x03005                          0
x03006                          0
x03007                          0
x03008                          0
x03009                          0
x04000                          0
x04001                          0
x04002                          0
x04003                          0
x04004                          0
x04005                          0
x04006                          0
x04007                          0
x04008                          0
x04009                          1
x05000                          0
x05001                          0
x05002                          0
x05003                          0
x05004                          0
x05005                          0
x05006                          1
x05007                          0
x05008                          0
x05009                          0
x06000                          0
x06001                          1
x06002                          0
x06003                          0
x06004                          0
x06005                          0
x06006                          0
x06007                          0
x06008                          0
x06009                          0
x07000                          0
x07001                          0
x07002                          1
x07003                          0
x07004                          0
x07005                          0
x07006                          0
x07007                          0
x07008                          0
x07009                          0
x08000                          0
x08001                          0
x08002                          0
x08003                          0
x08004                          0
x08005                          0
x08006                          0
x08007                          0
x08008                          1
x08009                          0
x09000                          0
x09001                          0
x09002                          0
x09003                          0
x09004                          1
x09005                          0
x09006                          0
x09007                          0
x09008                          0
x09009                          0
